268675.17,17.26,18.91
284267.15,16.31,17.87
262283.84,17.68,19.37
264711.18,17.52,19.19
274247.95,16.91,18.52
254463.83,18.22,19.96
263255.47,17.62,19.3
277312.28,16.72,18.32
282094.02,16.44,18.01
252306.23,18.38,20.13
269652.88,17.2,18.84
267651.8,17.33,18.98
255918.24,18.12,19.85
259408.32,17.88,19.58
267568.53,17.33,18.98
277251.93,16.73,18.32
285092.5,16.27,17.82
273372.38,16.96,18.58
259989.74,17.84,19.54
272128.43,17.04,18.67
